139 12 169 187 62 104 97 89 117 61 115 107 175 185 128 173 102 150 116 59 53 119 108 42 142 65 144 91 153 167 69 127 73 160 81 125 190 57 134 66 184 80 11 162 44 79 140 183 76 100 197 168 74 124 58 135 52 176 17 147 82 26 161 146 156 35 15 133 19 24 149 55 54 4 87 14 38 120 92 141 101 105 95 158 18 177 25 191 164 93 22 194 180 155 130 152 171 106 46 193 68 136 28 182 29 34 174 60 179 137 75 13 56 122 111 6 145 40 23 88 96 121 126 39 188 85 143 36 151 157 131 33 43 94 27 154 9 163 20 118 181 16 178 31 41 196 138 45 123 83 32 67 64 148 70 112 132 48 21 199 37 5 30 49 192 186 98 109 72 172 0 50 159 99 3 63 8 103 51 166 84 77 71 7 189 170 90 47 1 195 114 78 129 86 2 113 165 10 198 110